c WARNING: for repeatability, setting FPU to use double precision
d VARIABLES            26816        
d CONSTRAINTS          98129        
c ============================[ Problem Statistics ]=============================
c |                                                                             |
c |  Number of variables:         26816                                         |
c |  Number of clauses:           98129                                         |
c |  Parse time:                   0.01 s                                       |
c |                                                                             |
c ============================[ Search Statistics ]==============================
c | Conflicts |          ORIGINAL         |          LEARNT          | Progress |
c |           |    Vars  Clauses Literals |    Limit  Clauses Lit/Cl |          |
c ===============================================================================
c |       100 |   17231    73499   181195 |    26949      100     11 | 35.744 % |
c |       250 |   17231    73499   181195 |    29644      250     44 | 35.744 % |
c |       475 |   17231    73499   181195 |    32609      475     64 | 35.744 % |
c |       812 |   17231    73499   181195 |    35869      812     77 | 35.744 % |
c |      1318 |   17231    73499   181195 |    39456     1318     98 | 35.744 % |
c |      2077 |   17231    73499   181195 |    43402     2077     90 | 35.744 % |
c |      3216 |   17231    73499   181195 |    47742     3216    117 | 35.744 % |
c |      4924 |   17231    73499   181195 |    52517     4924    106 | 35.744 % |
c |      7486 |   17231    73499   181195 |    57768     7486    117 | 35.744 % |
c |     11330 |   17231    73499   181195 |    63545    11330    129 | 35.744 % |
c |     17096 |   17231    73499   181195 |    69900    17096    135 | 35.744 % |
c |     25745 |   17231    73499   181195 |    76890    25745    136 | 35.744 % |
c |     38719 |   17231    73499   181195 |    84579    38719    141 | 35.744 % |
c |     58180 |   17231    73499   181195 |    93037    58180    141 | 35.744 % |
c |     87372 |   17231    73499   181195 |   102341    87372    157 | 35.744 % |
c |    131161 |   17231    73499   181195 |   112575    40553    173 | 35.744 % |
c |    196845 |   17231    73499   181195 |   123832   106237    172 | 35.744 % |
c |    295371 |   17227    73480   181149 |   136216    94758    136 | 35.759 % |
c |    443160 |   17225    73470   181125 |   149837   118975    139 | 35.766 % |
c |    664843 |   17225    73470   181125 |   164821    62305     99 | 35.766 % |
c |    997368 |   17225    73470   181125 |   181303   101316    120 | 35.766 % |
c |   1496156 |   17225    73470   181125 |   199434    98044    116 | 35.766 % |
c |   2244338 |   17222    73456   181091 |   219377    99696    169 | 35.777 % |
c |   3366612 |   17219    73441   181055 |   241315   186604    121 | 35.788 % |
c ===============================================================================
c restarts              : 8190
c conflicts             : 4751010        (2653 /sec)
c decisions             : 9343632        (0.00 % random) (5218 /sec)
c propagations          : 4630109007     (2585665 /sec)
c conflict literals     : 673727126      (29.20 % deleted)
d RESTARTS             8190
d FAILURES             4751010      
d NODES                9343632      
d BACKTRACKS           9343632      
d PROPAGATIONS         4630109007   
d NOGOODSIZE           141.81 
d MEMORY               329.00 
d TIME                 1790.68 

s UNKNOWN
